DIMENSION :8
NODE_COORD_SECTION
1 77.18601814310512 -2.0856771951265074
2 -48.84970372126178 -23.150647633295947
3 82.50161431970918 97.7222900310683
4 80.81402066136869 -54.50848799357622
5 -81.62111772334828 81.50368937544255
6 -72.33404533374114 -60.63847617851395
7 10.225120873897538 -96.06379335233652
8 -29.772843452266756 -52.9310876197433
EOF
